
  32    1
  10

   0   0  13 2 3 4 5 6 7 8 9 10 12 13 14 15 
  10   1   7 31 27 24 23 21 20 16 
   4   2   4 30 26 20 11 
   6   2   4 28 26 20 11 
   6   1   9 29 28 27 26 24 23 20 19 18 
   8   4   6 28 25 23 21 20 16 
  10   1   5 25 24 20 17 16 
   2   2   4 27 24 20 16 
   1   3   4 27 23 20 16 
   8   2   6 27 26 24 23 21 20 
   5   1   3 25 21 16 
  10   6   3 24 21 16 
   2   2   5 28 25 23 20 18 
   7   1   5 26 23 21 19 18 
   5   1   5 23 21 20 19 18 
   3   3   3 22 19 18 
   4   2   1 21 
   5   1   1 32
   9   3   1 32
   5   4   1 32
   1   4   1 32
   1   2   1 32
   7   1   1 32
   9   2   1 32
   1   2   1 32
  10   2   1 32
   4   1   1 32
   1   1   1 32
   6   1   1 32
  10   1   1 32
   8   1   1 32
   0   0   0 
